100
2054
10
95
60
3
79
93
93
9
33
91
0
0 3
0 7
0 8
0 9
0 11
0 17
0 18
0 24
0 25
0 28
0 31
0 32
0 33
0 35
0 36
0 37
0 41
0 42
0 46
0 50
0 52
0 53
0 55
0 58
0 61
0 63
0 64
0 67
0 68
0 71
0 75
0 78
0 82
0 83
0 85
0 87
0 88
0 90
0 91
1 6
1 8
1 12
1 13
1 16
1 17
1 18
1 28
1 30
1 31
1 34
1 38
1 40
1 41
1 45
1 46
1 48
1 49
1 52
1 54
1 60
1 61
1 63
1 64
1 66
1 67
1 70
1 71
1 72
1 75
1 84
1 89
1 90
1 91
1 92
1 95
1 96
1 98
2 4
2 7
2 10
2 11
2 12
2 13
2 16
2 21
2 24
2 30
2 32
2 33
2 35
2 37
2 38
2 42
2 44
2 49
2 50
2 54
2 59
2 60
2 61
2 62
2 63
2 64
2 70
2 73
2 74
2 75
2 77
2 78
2 79
2 82
2 84
2 86
2 92
2 94
2 96
2 98
3 4
3 7
3 12
3 14
3 16
3 23
3 24
3 25
3 30
3 33
3 34
3 35
3 42
3 47
3 48
3 49
3 50
3 51
3 54
3 55
3 59
3 61
3 62
3 69
3 70
3 71
3 73
3 74
3 78
3 79
3 82
3 86
3 87
3 88
3 90
3 94
3 96
3 98
4 6
4 7
4 12
4 15
4 16
4 17
4 18
4 19
4 21
4 22
4 24
4 27
4 28
4 30
4 31
4 32
4 34
4 37
4 40
4 41
4 42
4 48
4 51
4 52
4 54
4 56
4 57
4 58
4 65
4 67
4 69
4 70
4 71
4 72
4 74
4 75
4 78
4 80
4 85
4 92
4 93
4 94
4 95
4 96
4 97
4 99
5 6
5 7
5 8
5 10
5 11
5 14
5 15
5 19
5 20
5 21
5 25
5 26
5 32
5 33
5 34
5 35
5 37
5 38
5 40
5 44
5 48
5 51
5 53
5 54
5 55
5 57
5 63
5 64
5 65
5 67
5 68
5 71
5 72
5 73
5 74
5 78
5 80
5 85
5 86
5 87
5 88
5 95
5 96
6 9
6 10
6 11
6 12
6 13
6 15
6 24
6 29
6 30
6 33
6 34
6 38
6 42
6 43
6 46
6 48
6 52
6 55
6 58
6 59
6 61
6 62
6 63
6 67
6 68
6 70
6 73
6 75
6 77
6 79
6 80
6 82
6 83
6 85
6 87
6 88
6 90
6 91
7 10
7 12
7 13
7 14
7 15
7 21
7 27
7 28
7 29
7 31
7 33
7 34
7 35
7 40
7 42
7 44
7 49
7 51
7 53
7 54
7 56
7 63
7 64
7 65
7 66
7 68
7 71
7 79
7 84
7 88
7 92
7 93
7 94
7 96
7 98
8 10
8 11
8 14
8 18
8 19
8 20
8 21
8 22
8 26
8 31
8 36
8 39
8 40
8 41
8 43
8 44
8 49
8 52
8 55
8 57
8 59
8 63
8 65
8 67
8 69
8 73
8 74
8 75
8 76
8 77
8 78
8 80
8 81
8 82
8 84
8 90
8 94
8 99
9 11
9 12
9 13
9 14
9 16
9 22
9 24
9 31
9 37
9 38
9 40
9 42
9 43
9 44
9 48
9 50
9 51
9 52
9 55
9 57
9 59
9 61
9 65
9 66
9 70
9 72
9 74
9 76
9 78
9 80
9 82
9 85
9 86
9 92
9 95
9 97
10 11
10 15
10 18
10 22
10 25
10 26
10 27
10 28
10 29
10 31
10 32
10 33
10 36
10 40
10 43
10 45
10 47
10 48
10 53
10 54
10 57
10 58
10 59
10 61
10 64
10 65
10 66
10 67
10 73
10 74
10 79
10 81
10 82
10 83
10 84
10 85
10 87
10 90
10 91
10 94
10 96
10 98
11 12
11 13
11 15
11 19
11 23
11 27
11 32
11 35
11 38
11 40
11 42
11 43
11 49
11 50
11 51
11 52
11 54
11 60
11 62
11 64
11 70
11 72
11 74
11 75
11 78
11 79
11 84
11 89
11 91
11 97
11 99
12 15
12 17
12 20
12 21
12 23
12 24
12 25
12 30
12 31
12 34
12 36
12 37
12 40
12 41
12 45
12 46
12 47
12 48
12 50
12 52
12 55
12 56
12 61
12 63
12 65
12 66
12 67
12 68
12 71
12 75
12 82
12 83
12 85
12 89
12 90
12 93
12 95
12 97
12 99
13 16
13 17
13 21
13 22
13 24
13 25
13 29
13 30
13 32
13 34
13 38
13 39
13 40
13 43
13 46
13 48
13 49
13 52
13 53
13 58
13 62
13 63
13 64
13 65
13 68
13 79
13 81
13 82
13 84
13 85
13 86
13 87
13 95
13 96
13 99
14 15
14 16
14 18
14 22
14 24
14 26
14 29
14 31
14 32
14 34
14 36
14 38
14 39
14 41
14 42
14 44
14 45
14 46
14 48
14 49
14 50
14 61
14 62
14 64
14 65
14 72
14 74
14 76
14 78
14 80
14 82
14 83
14 89
14 91
14 92
14 93
14 96
15 16
15 17
15 20
15 23
15 26
15 28
15 29
15 33
15 34
15 36
15 38
15 44
15 45
15 47
15 48
15 64
15 66
15 72
15 73
15 79
15 80
15 84
15 85
15 86
15 87
15 90
15 92
15 93
15 95
15 96
16 18
16 22
16 23
16 29
16 30
16 31
16 33
16 35
16 39
16 40
16 41
16 45
16 48
16 50
16 51
16 54
16 56
16 57
16 63
16 66
16 68
16 69
16 73
16 74
16 78
16 79
16 80
16 82
16 88
16 89
16 91
16 92
16 94
16 96
16 99
17 18
17 19
17 20
17 21
17 23
17 26
17 27
17 29
17 32
17 33
17 36
17 37
17 41
17 44
17 47
17 52
17 60
17 63
17 64
17 68
17 69
17 74
17 75
17 77
17 84
17 85
17 87
17 90
17 93
17 99
18 21
18 22
18 30
18 31
18 34
18 36
18 37
18 43
18 47
18 49
18 51
18 52
18 54
18 55
18 56
18 61
18 65
18 69
18 71
18 72
18 73
18 74
18 80
18 81
18 82
18 83
18 86
18 93
18 96
18 98
19 21
19 29
19 30
19 35
19 36
19 42
19 43
19 44
19 45
19 46
19 51
19 53
19 55
19 57
19 58
19 59
19 60
19 63
19 65
19 67
19 69
19 71
19 72
19 73
19 74
19 75
19 81
19 82
19 83
19 84
19 85
19 86
19 87
19 90
19 91
19 96
19 98
20 25
20 26
20 28
20 29
20 36
20 38
20 39
20 40
20 42
20 43
20 44
20 52
20 56
20 59
20 60
20 62
20 64
20 65
20 66
20 68
20 70
20 71
20 73
20 74
20 75
20 78
20 81
20 82
20 84
20 87
20 89
20 96
21 26
21 27
21 31
21 33
21 35
21 37
21 38
21 39
21 41
21 42
21 46
21 47
21 50
21 51
21 55
21 60
21 63
21 66
21 68
21 69
21 73
21 75
21 78
21 84
21 85
21 86
21 89
21 92
21 96
21 97
21 99
22 27
22 29
22 36
22 41
22 42
22 43
22 48
22 50
22 51
22 53
22 54
22 55
22 58
22 59
22 64
22 65
22 69
22 71
22 72
22 73
22 75
22 77
22 79
22 80
22 82
22 87
22 88
22 94
22 95
22 96
22 97
22 98
22 99
23 24
23 25
23 26
23 27
23 30
23 31
23 32
23 34
23 36
23 38
23 49
23 55
23 57
23 58
23 59
23 66
23 75
23 77
23 84
23 86
23 91
24 32
24 33
24 34
24 35
24 36
24 38
24 39
24 40
24 44
24 46
24 52
24 54
24 59
24 62
24 63
24 64
24 65
24 66
24 68
24 69
24 70
24 71
24 75
24 77
24 86
24 87
24 89
24 94
25 26
25 27
25 30
25 32
25 36
25 37
25 40
25 41
25 42
25 46
25 47
25 49
25 50
25 52
25 53
25 55
25 57
25 58
25 60
25 64
25 66
25 68
25 70
25 71
25 83
25 89
25 91
25 92
25 95
25 96
25 97
26 27
26 28
26 32
26 33
26 34
26 35
26 37
26 41
26 43
26 45
26 46
26 54
26 56
26 58
26 61
26 62
26 63
26 66
26 67
26 74
26 76
26 77
26 79
26 83
26 85
26 88
26 89
26 91
26 92
26 95
26 99
27 37
27 40
27 41
27 43
27 44
27 48
27 54
27 56
27 58
27 60
27 62
27 66
27 67
27 70
27 72
27 73
27 75
27 82
27 84
27 86
27 92
27 93
27 96
28 32
28 35
28 36
28 41
28 42
28 45
28 47
28 51
28 56
28 57
28 58
28 62
28 67
28 68
28 73
28 78
28 84
28 86
28 92
28 94
28 97
29 30
29 31
29 36
29 38
29 39
29 41
29 42
29 49
29 53
29 57
29 59
29 62
29 63
29 64
29 65
29 70
29 71
29 73
29 75
29 76
29 78
29 79
29 81
29 82
29 83
29 85
29 89
29 92
29 99
30 31
30 34
30 37
30 41
30 44
30 51
30 53
30 54
30 57
30 58
30 59
30 61
30 63
30 67
30 71
30 74
30 76
30 82
30 87
30 89
30 91
30 93
30 94
30 98
30 99
31 32
31 35
31 42
31 43
31 44
31 45
31 46
31 47
31 48
31 49
31 54
31 57
31 60
31 61
31 64
31 65
31 68
31 71
31 73
31 77
31 80
31 82
31 84
31 85
31 91
31 93
31 96
32 36
32 38
32 39
32 41
32 42
32 43
32 45
32 46
32 48
32 49
32 50
32 54
32 55
32 61
32 64
32 65
32 66
32 69
32 71
32 73
32 75
32 76
32 78
32 79
32 80
32 85
32 88
32 91
32 93
32 94
32 95
32 96
32 97
32 98
32 99
33 34
33 36
33 37
33 41
33 42
33 43
33 46
33 47
33 48
33 50
33 56
33 58
33 61
33 62
33 63
33 70
33 74
33 75
33 78
33 79
33 80
33 83
33 84
33 87
33 88
33 89
33 90
33 92
33 93
33 96
33 97
34 35
34 38
34 39
34 40
34 42
34 43
34 45
34 49
34 50
34 55
34 59
34 62
34 63
34 64
34 65
34 71
34 72
34 73
34 77
34 84
34 85
34 86
34 87
34 89
34 95
34 96
35 41
35 44
35 46
35 50
35 56
35 59
35 60
35 61
35 65
35 66
35 67
35 69
35 71
35 73
35 86
35 88
35 91
35 92
35 93
35 96
35 98
36 37
36 39
36 41
36 44
36 45
36 46
36 47
36 50
36 52
36 55
36 56
36 60
36 63
36 66
36 68
36 70
36 72
36 73
36 75
36 81
36 82
36 84
36 85
36 86
36 88
36 90
37 41
37 42
37 44
37 45
37 47
37 49
37 52
37 59
37 60
37 61
37 62
37 63
37 66
37 70
37 74
37 75
37 76
37 77
37 79
37 84
37 88
37 92
37 93
37 95
37 97
38 41
38 42
38 45
38 48
38 50
38 52
38 53
38 55
38 58
38 59
38 68
38 69
38 72
38 74
38 77
38 79
38 80
38 81
38 82
38 89
38 90
38 93
38 97
39 40
39 42
39 44
39 45
39 46
39 48
39 50
39 53
39 56
39 60
39 62
39 63
39 64
39 65
39 67
39 68
39 69
39 70
39 71
39 74
39 75
39 77
39 80
39 83
39 84
39 86
39 87
39 88
39 93
39 99
40 45
40 47
40 49
40 57
40 60
40 61
40 62
40 68
40 69
40 70
40 71
40 72
40 76
40 78
40 79
40 80
40 81
40 82
40 85
40 87
40 92
40 98
41 45
41 46
41 48
41 51
41 52
41 53
41 54
41 55
41 56
41 57
41 59
41 60
41 61
41 64
41 65
41 67
41 69
41 70
41 71
41 72
41 75
41 80
41 81
41 82
41 83
41 84
41 86
41 91
41 97
41 98
42 44
42 45
42 47
42 48
42 49
42 51
42 52
42 56
42 58
42 61
42 64
42 70
42 71
42 72
42 74
42 79
42 81
42 85
42 87
42 91
42 93
42 97
42 99
43 44
43 46
43 47
43 51
43 54
43 55
43 56
43 57
43 59
43 60
43 62
43 64
43 65
43 69
43 71
43 77
43 79
43 81
43 86
43 88
43 90
43 92
43 93
43 95
43 97
43 99
44 47
44 49
44 51
44 52
44 55
44 56
44 62
44 63
44 65
44 66
44 67
44 70
44 72
44 76
44 80
44 82
44 83
44 84
44 85
44 86
44 88
44 89
44 90
44 93
44 97
44 99
45 46
45 47
45 48
45 55
45 57
45 58
45 59
45 60
45 61
45 63
45 65
45 66
45 67
45 68
45 71
45 72
45 73
45 74
45 76
45 79
45 80
45 81
45 83
45 85
45 86
45 87
45 92
45 93
45 95
45 97
45 98
46 48
46 53
46 55
46 57
46 59
46 60
46 61
46 63
46 64
46 70
46 71
46 80
46 84
46 87
46 90
46 91
46 94
46 95
46 96
47 48
47 50
47 51
47 52
47 53
47 57
47 58
47 59
47 62
47 63
47 64
47 66
47 67
47 68
47 77
47 78
47 79
47 80
47 83
47 84
47 87
47 90
47 92
47 94
47 95
47 96
47 99
48 50
48 57
48 60
48 62
48 64
48 66
48 69
48 73
48 74
48 76
48 77
48 78
48 79
48 81
48 85
48 88
48 89
48 91
48 94
48 96
48 97
49 53
49 57
49 63
49 64
49 65
49 72
49 73
49 75
49 76
49 78
49 79
49 80
49 81
49 82
49 85
49 87
49 88
49 89
49 92
49 95
49 98
50 52
50 61
50 63
50 64
50 65
50 67
50 70
50 73
50 74
50 76
50 77
50 81
50 82
50 88
50 89
50 91
50 93
50 96
50 97
50 99
51 60
51 64
51 65
51 66
51 68
51 69
51 72
51 73
51 74
51 76
51 77
51 80
51 82
51 83
51 84
51 85
51 86
51 88
51 89
51 90
51 94
51 96
51 97
51 98
51 99
52 55
52 64
52 70
52 71
52 72
52 73
52 76
52 77
52 78
52 80
52 81
52 83
52 87
52 89
52 91
52 92
52 93
52 96
52 98
52 99
53 55
53 57
53 59
53 61
53 62
53 65
53 66
53 68
53 69
53 72
53 74
53 75
53 77
53 78
53 79
53 81
53 82
53 84
53 85
53 86
53 87
53 88
53 89
53 90
53 94
53 96
53 97
54 55
54 56
54 57
54 64
54 69
54 70
54 76
54 78
54 89
54 90
54 92
54 93
54 97
54 98
55 57
55 63
55 66
55 67
55 68
55 70
55 74
55 75
55 76
55 78
55 79
55 84
55 87
55 89
55 94
55 96
55 97
55 98
56 59
56 61
56 63
56 65
56 67
56 70
56 71
56 76
56 78
56 82
56 83
56 85
56 86
56 87
56 88
56 94
56 98
56 99
57 59
57 61
57 64
57 65
57 66
57 73
57 76
57 78
57 81
57 84
57 88
57 90
57 91
57 94
57 95
58 60
58 61
58 65
58 67
58 68
58 70
58 72
58 78
58 82
58 83
58 86
58 97
59 62
59 63
59 64
59 70
59 71
59 74
59 77
59 80
59 81
59 84
59 86
59 87
59 88
59 92
59 93
59 94
59 95
60 63
60 64
60 66
60 68
60 70
60 73
60 74
60 75
60 76
60 77
60 85
60 86
60 88
60 90
60 93
60 94
60 95
61 63
61 64
61 65
61 66
61 67
61 69
61 70
61 76
61 79
61 80
61 81
61 82
61 83
61 84
61 85
61 86
61 88
61 89
61 91
61 96
61 97
61 98
61 99
62 65
62 73
62 74
62 77
62 78
62 79
62 81
62 82
62 84
62 85
62 87
62 88
62 91
62 92
62 93
62 97
62 98
62 99
63 64
63 65
63 66
63 68
63 72
63 77
63 78
63 80
63 82
63 85
63 86
63 89
63 91
63 95
63 97
64 66
64 70
64 72
64 74
64 76
64 78
64 82
64 84
64 85
64 86
64 90
64 92
64 94
64 97
65 66
65 67
65 77
65 78
65 80
65 81
65 83
65 84
65 90
65 92
65 96
65 99
66 67
66 71
66 73
66 75
66 78
66 79
66 80
66 84
66 85
66 87
66 93
66 95
66 97
67 69
67 70
67 75
67 77
67 78
67 80
67 84
67 86
67 87
67 88
67 89
67 90
67 91
67 93
67 94
67 95
67 99
68 69
68 71
68 74
68 77
68 84
68 85
68 89
68 90
68 94
69 70
69 75
69 76
69 77
69 78
69 83
69 85
69 89
69 92
69 93
69 94
69 97
69 99
70 75
70 77
70 80
70 83
70 85
70 86
70 91
70 92
70 93
70 95
70 97
71 72
71 74
71 79
71 81
71 82
71 83
71 85
71 89
71 90
71 96
71 97
71 98
72 73
72 74
72 78
72 83
72 85
72 86
72 87
72 88
72 91
72 92
72 99
73 77
73 79
73 82
73 85
73 87
73 93
73 94
73 96
73 97
74 75
74 79
74 80
74 83
74 87
74 91
74 93
74 94
74 95
74 96
75 76
75 78
75 81
75 82
75 84
75 85
75 87
75 90
75 92
75 93
75 96
75 99
76 77
76 78
76 79
76 82
76 86
76 87
76 89
76 90
76 94
76 95
76 96
76 97
76 99
77 78
77 79
77 80
77 82
77 83
77 85
77 86
77 90
77 93
77 94
77 96
78 80
78 86
78 88
78 90
78 95
78 97
78 99
79 80
79 81
79 82
79 83
79 85
79 87
79 88
79 90
79 97
79 98
80 81
80 82
80 84
80 85
80 90
80 91
80 92
80 93
80 98
80 99
81 87
81 88
81 89
81 90
81 92
81 94
81 95
81 97
81 98
82 83
82 84
82 86
82 88
82 91
82 92
82 95
82 98
83 86
83 90
83 93
83 94
83 95
83 97
83 98
84 86
84 92
84 94
84 95
85 87
85 94
85 97
86 91
86 92
86 95
86 97
87 88
87 89
87 91
87 94
87 95
87 98
88 90
88 94
88 96
88 97
89 92
89 98
89 99
90 95
90 96
90 98
91 92
91 94
91 97
91 99
92 93
92 97
92 98
92 99
93 98
94 95
94 97
94 99
95 96
95 97
96 97
96 99
97 99
98 99
29 34 49 76 71 74 27 75 6 72
18 85 73 70 1 30 77 25 26 20
39 14 13 58 83 68 16 97 12 48
50 2 33 53 32 60 5 28 40 22
63 80 37 99 52 9 47 93 36 4
7 10 51 67 8 42 0 69 62 65
90 82 92 84 56 98 45 87 55 19
96 31 41 91 35 24 44 38 17 46
89 88 43 61 66 86 57 15 3 59
21 23 78 81 54 94 79 64 95 11
